NAME: Graph
TYPE: TSP
DIMENSION: 20
EDGE_WEIGHT_TYPE: EUC_2D
NODE_COORD_SECTION
1 2 34
2 3 55
3 7 32
4 12 37
5 18 32
6 25 71
7 35 8
8 36 85
9 38 66
10 40 67
11 58 71
12 65 23
13 75 17
14 77 38
15 77 46
16 87 70
17 88 24
18 92 88
19 94 53
20 96 7
EOF
